NAME : CMT01Q
TYPE : MVRPB
DIMENSION : 51
VEHICLES : 4
CAPACITY : 160
EDGE_WEIGHT_TYPE : EXACT_2D
NODE_COORD_SECTION
1 30 40
2 37 52
3 49 49
4 52 64
5 20 26
6 40 30
7 21 47
8 17 63
9 31 62
10 52 33
11 51 21
12 42 41
13 31 32
14 5 25
15 12 42
16 36 16
17 52 41
18 27 23
19 17 33
20 13 13
21 57 58
22 62 42
23 42 57
24 16 57
25 8 52
26 7 38
27 27 68
28 30 48
29 43 67
30 58 48
31 58 27
32 37 69
33 38 46
34 46 10
35 61 33
36 62 63
37 63 69
38 32 22
39 45 35
40 59 15
41 5 6
42 10 17
43 21 10
44 5 64
45 30 15
46 39 10
47 32 39
48 25 32
49 25 55
50 48 28
51 56 37
PICKUP_AND_DELIVERY_SECTION
1 0 0 10000000 0 0 0
2 0 0 10000000 0 0 7
3 0 0 10000000 0 0 30
4 0 0 10000000 0 0 16
5 0 0 10000000 0 9 0
6 0 0 10000000 0 0 21
7 0 0 10000000 0 0 15
8 0 0 10000000 0 0 19
9 0 0 10000000 0 23 0
10 0 0 10000000 0 0 11
11 0 0 10000000 0 0 5
12 0 0 10000000 0 0 19
13 0 0 10000000 0 29 0
14 0 0 10000000 0 0 23
15 0 0 10000000 0 0 21
16 0 0 10000000 0 0 10
17 0 0 10000000 0 15 0
18 0 0 10000000 0 0 3
19 0 0 10000000 0 0 41
20 0 0 10000000 0 0 9
21 0 0 10000000 0 28 0
22 0 0 10000000 0 0 8
23 0 0 10000000 0 0 8
24 0 0 10000000 0 0 16
25 0 0 10000000 0 10 0
26 0 0 10000000 0 0 28
27 0 0 10000000 0 0 7
28 0 0 10000000 0 0 15
29 0 0 10000000 0 14 0
30 0 0 10000000 0 0 6
31 0 0 10000000 0 0 19
32 0 0 10000000 0 0 11
33 0 0 10000000 0 11 0
34 0 0 10000000 0 0 23
35 0 0 10000000 0 0 26
36 0 0 10000000 0 0 17
37 0 0 10000000 0 6 0
38 0 0 10000000 0 0 9
39 0 0 10000000 0 0 15
40 0 0 10000000 0 0 14
41 0 0 10000000 0 7 0
42 0 0 10000000 0 0 27
43 0 0 10000000 0 0 13
44 0 0 10000000 0 0 11
45 0 0 10000000 0 16 0
46 0 0 10000000 0 0 10
47 0 0 10000000 0 0 5
48 0 0 10000000 0 0 25
49 0 0 10000000 0 17 0
50 0 0 10000000 0 0 18
51 0 0 10000000 0 0 10
DEPOT_SECTION
1 
-1
EOF
